Problem:    
Rows:       51
Columns:    36
Non-zeros:  111
Status:     OPTIMAL
Objective:  obj = 246000 (MAXimum)

   No.   Row name   St   Activity     Lower bound   Upper bound    Marginal
------ ------------ -- ------------- ------------- ------------- -------------
     1 r.4          B             70                         200 
     2 r.5          B             20                          75 
     3 r.6          B              0                         200 
     4 r.7          B              0                          75 
     5 r.8          NU            60                          60           800 
     6 r.9          NS             0             0             =         < eps
     7 r.10         NS             0             0             =         < eps
     8 r.11         B             90                         165 
     9 r.12         B              0                         165 
    10 r.13         NU           165                         165           500 
    11 r.14         NU           165                         165           500 
    12 r.15         NU           165                         165           200 
    13 r.16         B             70             0               
    14 r.18         NS             0             0             =          -500 
    15 r.19         NS             0             0             =          -500 
    16 r.20         B              0             0               
    17 r.21         B             70             0               
    18 r.22         B              0             0               
    19 r.23         B              0             0               
    20 r.24         B             20             0               
    21 r.25         B              0             0               
    22 r.26         B              0             0               
    23 r.27         B              0             0               
    24 r.28         B           82.5             0               
    25 r.29         B              0             0               
    26 r.30         B              0             0               
    27 r.31         B              0             0               
    28 r.32         B              0             0               
    29 r.33         B              0             0               
    30 r.34         B              0             0               
    31 r.35         B              0             0               
    32 r.36         B              0             0               
    33 r.37         B           82.5             0               
    34 r.38         B              0             0               
    35 r.39         B              0             0               
    36 r.40         B              0             0               
    37 r.41         B              0             0               
    38 r.42         B              0             0               
    39 r.43         B            105             0               
    40 r.44         B              0             0               
    41 r.45         B              0             0               
    42 r.46         B             60             0               
    43 r.47         B              0             0               
    44 r.48         B              0             0               
    45 r.49         B              0             0               
    46 r.50         B              0             0               
    47 r.51         B              0             0               
    48 r.52         B              0             0               
    49 r.53         B           82.5             0               
    50 r.54         B           82.5             0               
    51 r.55         B              0             0               

   No. Column name  St   Activity     Lower bound   Upper bound    Marginal
------ ------------ -- ------------- ------------- ------------- -------------
     1 G_1_4        NL             0             0                        -350 
     2 G_2_4        NL             0             0                        -350 
     3 G_3_4        NL             0             0                         -50 
     4 D_1_4        NL             0             0                        -300 
     5 D_2_4        NL             0             0                        -300 
     6 D_3_4        B            105             0               
     7 J_1_4        B           82.5             0               
     8 J_2_4        B           82.5             0               
     9 J_3_4        B             60             0               
    10 G_1_3        B             70             0               
    11 G_1_2        NL             0             0                       < eps
    12 D_1_2        NL             0             0                       < eps
    13 D_1_3        B             20             0               
    14 G_2_1        NL             0             0                       < eps
    15 G_2_3        NL             0             0                       < eps
    16 D_2_1        NL             0             0                       < eps
    17 D_2_3        NL             0             0                       < eps
    18 J_3_1        NL             0             0                        -300 
    19 J_3_2        NL             0             0                        -300 
    20 G_4_3        NL             0             0                        -200 
    21 D_4_3        NL             0             0                        -200 
    22 J_1_3        NL             0             0                        -500 
    23 G_3_1        NL             0             0                       < eps
    24 D_3_1        NL             0             0                       < eps
    25 J_2_3        NL             0             0                        -500 
    26 G_3_2        NL             0             0                       < eps
    27 D_3_2        NL             0             0                       < eps
    28 G_4_2        NL             0             0                        -500 
    29 D_4_2        NL             0             0                        -500 
    30 J_4_2        B           82.5             0               
    31 G_4_1        NL             0             0                        -500 
    32 D_4_1        NL             0             0                        -500 
    33 J_4_1        B           82.5             0               
    34 J_4_3        NL             0             0                        -200 
    35 J_2_1        NL             0             0                       < eps
    36 J_1_2        NL             0             0                       < eps

Karush-Kuhn-Tucker optimality conditions:

KKT.PE: max.abs.err = 7.11e-15 on row 5
        max.rel.err = 5.87e-17 on row 5
        High quality

KKT.PB: max.abs.err = 0.00e+00 on row 0
        max.rel.err = 0.00e+00 on row 0
        High quality

KKT.DE: max.abs.err = 1.14e-13 on column 9
        max.rel.err = 5.68e-17 on column 9
        High quality

KKT.DB: max.abs.err = 0.00e+00 on row 0
        max.rel.err = 0.00e+00 on row 0
        High quality

End of output
